num_bands = 40
num_wann = 8
spinors = true
postproc_setup = true
skip_B1_tests = true

begin unit_cell_cart
ang
  0 3.238 3.238
  3.238 0 3.238
  3.238 3.238 0
end unit_cell_cart

begin atoms_frac
  Cd 0 0 0
  Te 0.25 0.25 0.25
end atoms_frac

begin projections
  Cd:s(u,d)
  Te:s(u,d)
  Cd:pz(u,d)
  Te:pz(u,d)
end projections

begin kpoints
  0 0 0 ! 01 Gamma
  0.005153437057316 0.005153437057316 0 ! 02 +001_h
  -0.005153437057316 -0.005153437057316 0 ! 03 -001_h
  0.002576718528658 0.002576718528658 0 ! 04 +001_h_over_2
  -0.002576718528658 -0.002576718528658 0 ! 05 -001_h_over_2
  0.005950676544586 0.005950676544586 0.005950676544586 ! 06 +111_h
  -0.005950676544586 -0.005950676544586 -0.005950676544586 ! 07 -111_h
  0.002975338272293 0.002975338272293 0.002975338272293 ! 08 +111_h_over_2
  -0.002975338272293 -0.002975338272293 -0.002975338272293 ! 09 -111_h_over_2
  0.003644030289646 0.003644030289646 0.007288060579292 ! 10 +110_h
  -0.003644030289646 -0.003644030289646 -0.007288060579292 ! 11 -110_h
  0.001822015144823 0.001822015144823 0.003644030289646 ! 12 +110_h_over_2
  -0.001822015144823 -0.001822015144823 -0.003644030289646 ! 13 -110_h_over_2
end kpoints

begin nnkpts
  1 1 0 0 0
  2 1 0 0 0
  3 1 0 0 0
  4 1 0 0 0
  5 1 0 0 0
  6 1 0 0 0
  7 1 0 0 0
  8 1 0 0 0
  9 1 0 0 0
  10 1 0 0 0
  11 1 0 0 0
  12 1 0 0 0
  13 1 0 0 0
end nnkpts
